NAME : netgen18-2-6
COMMENT : Generated using the function generateClusteredNetwork from the R-package netgen (Bossek,2015) - Number of clusters: 2
TYPE : TSP
DIMENSION : 18
EDGE_WEIGHT_TYPE : EUC_2D
NODE_COORD_SECTION
1 27.5787255083 59.5107780521
2 35.8420670371 42.3675590222
3 44.2652446108 52.3289881038
4 48.3700159964 41.9533450998
5 36.3331816214 59.4267824193
6 38.9592927729 38.249473627
7 46.3268264139 60.3889269753
8 27.2155887836 54.0380154875
9 45.3698348915 60.9075869938
10 93.1637638379 86.4869783208
11 82.5789921292 84.4979802761
12 93.2616302675 98.8752684482
13 97.697307898 81.4743324503
14 90.0770672898 90.6623681745
15 98.7300937546 92.1356794288
16 87.2022607601 89.0607506726
17 97.19056319 76.1308787161
18 88.5651058072 83.7291777915
EOF
